experiments/extractfix/binutils/CVE-2017-15025/components/lh.line_range.smt2
(declare-const rvalue_lh.line_range (_ BitVec 32))
(declare-const lvalue_lh.line_range (_ BitVec 32))
(declare-const rreturn (_ BitVec 32))
(declare-const lreturn (_ BitVec 32))
(assert (and (= rreturn rvalue_lh.line_range) (= lreturn lvalue_lh.line_range)))